NAME : Golden_9
COMMENT : 585.43
TYPE : CVRP
DIMENSION : 256
EDGE_WEIGHT_TYPE : EUC_2D
CAPACITY : 1000
NODE_COORD_SECTION
1 0.00000 -15.00000
2 -1.00000 -14.00000
3 1.00000 -14.00000
4 -2.00000 -13.00000
5 0.00000 -13.00000
6 2.00000 -13.00000
7 -3.00000 -12.00000
8 -1.00000 -12.00000
9 1.00000 -12.00000
10 3.00000 -12.00000
11 -4.00000 -11.00000
12 -2.00000 -11.00000
13 0.00000 -11.00000
14 2.00000 -11.00000
15 4.00000 -11.00000
16 -5.00000 -10.00000
17 -3.00000 -10.00000
18 -1.00000 -10.00000
19 1.00000 -10.00000
20 3.00000 -10.00000
21 5.00000 -10.00000
22 -6.00000 -9.00000
23 -4.00000 -9.00000
24 -2.00000 -9.00000
25 0.00000 -9.00000
26 2.00000 -9.00000
27 4.00000 -9.00000
28 6.00000 -9.00000
29 -7.00000 -8.00000
30 -5.00000 -8.00000
31 -3.00000 -8.00000
32 -1.00000 -8.00000
33 1.00000 -8.00000
34 3.00000 -8.00000
35 5.00000 -8.00000
36 7.00000 -8.00000
37 -8.00000 -7.00000
38 -6.00000 -7.00000
39 -4.00000 -7.00000
40 -2.00000 -7.00000
41 0.00000 -7.00000
42 2.00000 -7.00000
43 4.00000 -7.00000
44 6.00000 -7.00000
45 8.00000 -7.00000
46 -9.00000 -6.00000
47 -7.00000 -6.00000
48 -5.00000 -6.00000
49 -3.00000 -6.00000
50 -1.00000 -6.00000
51 1.00000 -6.00000
52 3.00000 -6.00000
53 5.00000 -6.00000
54 7.00000 -6.00000
55 9.00000 -6.00000
56 -10.00000 -5.00000
57 -8.00000 -5.00000
58 -6.00000 -5.00000
59 -4.00000 -5.00000
60 -2.00000 -5.00000
61 0.00000 -5.00000
62 2.00000 -5.00000
63 4.00000 -5.00000
64 6.00000 -5.00000
65 8.00000 -5.00000
66 10.00000 -5.00000
67 -11.00000 -4.00000
68 -9.00000 -4.00000
69 -7.00000 -4.00000
70 -5.00000 -4.00000
71 -3.00000 -4.00000
72 -1.00000 -4.00000
73 1.00000 -4.00000
74 3.00000 -4.00000
75 5.00000 -4.00000
76 7.00000 -4.00000
77 9.00000 -4.00000
78 11.00000 -4.00000
79 -12.00000 -3.00000
80 -10.00000 -3.00000
81 -8.00000 -3.00000
82 -6.00000 -3.00000
83 -4.00000 -3.00000
84 -2.00000 -3.00000
85 0.00000 -3.00000
86 2.00000 -3.00000
87 4.00000 -3.00000
88 6.00000 -3.00000
89 8.00000 -3.00000
90 10.00000 -3.00000
91 12.00000 -3.00000
92 -13.00000 -2.00000
93 -11.00000 -2.00000
94 -9.00000 -2.00000
95 -7.00000 -2.00000
96 -5.00000 -2.00000
97 -3.00000 -2.00000
98 -1.00000 -2.00000
99 1.00000 -2.00000
100 3.00000 -2.00000
101 5.00000 -2.00000
102 7.00000 -2.00000
103 9.00000 -2.00000
104 11.00000 -2.00000
105 13.00000 -2.00000
106 -14.00000 -1.00000
107 -12.00000 -1.00000
108 -10.00000 -1.00000
109 -8.00000 -1.00000
110 -6.00000 -1.00000
111 -4.00000 -1.00000
112 -2.00000 -1.00000
113 0.00000 -1.00000
114 2.00000 -1.00000
115 4.00000 -1.00000
116 6.00000 -1.00000
117 8.00000 -1.00000
118 10.00000 -1.00000
119 12.00000 -1.00000
120 14.00000 -1.00000
121 -15.00000 0.00000
122 -13.00000 0.00000
123 -11.00000 0.00000
124 -9.00000 0.00000
125 -7.00000 0.00000
126 -5.00000 0.00000
127 -3.00000 0.00000
128 -1.00000 0.00000
129 1.00000 0.00000
130 3.00000 0.00000
131 5.00000 0.00000
132 7.00000 0.00000
133 9.00000 0.00000
134 11.00000 0.00000
135 13.00000 0.00000
136 15.00000 0.00000
137 -14.00000 1.00000
138 -12.00000 1.00000
139 -10.00000 1.00000
140 -8.00000 1.00000
141 -6.00000 1.00000
142 -4.00000 1.00000
143 -2.00000 1.00000
144 0.00000 1.00000
145 2.00000 1.00000
146 4.00000 1.00000
147 6.00000 1.00000
148 8.00000 1.00000
149 10.00000 1.00000
150 12.00000 1.00000
151 14.00000 1.00000
152 -13.00000 2.00000
153 -11.00000 2.00000
154 -9.00000 2.00000
155 -7.00000 2.00000
156 -5.00000 2.00000
157 -3.00000 2.00000
158 -1.00000 2.00000
159 1.00000 2.00000
160 3.00000 2.00000
161 5.00000 2.00000
162 7.00000 2.00000
163 9.00000 2.00000
164 11.00000 2.00000
165 13.00000 2.00000
166 -12.00000 3.00000
167 -10.00000 3.00000
168 -8.00000 3.00000
169 -6.00000 3.00000
170 -4.00000 3.00000
171 -2.00000 3.00000
172 0.00000 3.00000
173 2.00000 3.00000
174 4.00000 3.00000
175 6.00000 3.00000
176 8.00000 3.00000
177 10.00000 3.00000
178 12.00000 3.00000
179 -11.00000 4.00000
180 -9.00000 4.00000
181 -7.00000 4.00000
182 -5.00000 4.00000
183 -3.00000 4.00000
184 -1.00000 4.00000
185 1.00000 4.00000
186 3.00000 4.00000
187 5.00000 4.00000
188 7.00000 4.00000
189 9.00000 4.00000
190 11.00000 4.00000
191 -10.00000 5.00000
192 -8.00000 5.00000
193 -6.00000 5.00000
194 -4.00000 5.00000
195 -2.00000 5.00000
196 0.00000 5.00000
197 2.00000 5.00000
198 4.00000 5.00000
199 6.00000 5.00000
200 8.00000 5.00000
201 10.00000 5.00000
202 -9.00000 6.00000
203 -7.00000 6.00000
204 -5.00000 6.00000
205 -3.00000 6.00000
206 -1.00000 6.00000
207 1.00000 6.00000
208 3.00000 6.00000
209 5.00000 6.00000
210 7.00000 6.00000
211 9.00000 6.00000
212 -8.00000 7.00000
213 -6.00000 7.00000
214 -4.00000 7.00000
215 -2.00000 7.00000
216 0.00000 7.00000
217 2.00000 7.00000
218 4.00000 7.00000
219 6.00000 7.00000
220 8.00000 7.00000
221 -7.00000 8.00000
222 -5.00000 8.00000
223 -3.00000 8.00000
224 -1.00000 8.00000
225 1.00000 8.00000
226 3.00000 8.00000
227 5.00000 8.00000
228 7.00000 8.00000
229 -6.00000 9.00000
230 -4.00000 9.00000
231 -2.00000 9.00000
232 0.00000 9.00000
233 2.00000 9.00000
234 4.00000 9.00000
235 6.00000 9.00000
236 -5.00000 10.00000
237 -3.00000 10.00000
238 -1.00000 10.00000
239 1.00000 10.00000
240 3.00000 10.00000
241 5.00000 10.00000
242 -4.00000 11.00000
243 -2.00000 11.00000
244 0.00000 11.00000
245 2.00000 11.00000
246 4.00000 11.00000
247 -3.00000 12.00000
248 -1.00000 12.00000
249 1.00000 12.00000
250 3.00000 12.00000
251 -2.00000 13.00000
252 0.00000 13.00000
253 2.00000 13.00000
254 -1.00000 14.00000
255 1.00000 14.00000
256 0.00000 15.00000
DEMAND_SECTION
1 0
2 300
3 300
4 180
5 300
6 180
7 128
8 180
9 180
10 128
11 100
12 128
13 180
14 128
15 100
16 81
17 100
18 128
19 128
20 100
21 81
22 69
23 81
24 100
25 128
26 100
27 81
28 69
29 60
30 69
31 81
32 100
33 100
34 81
35 69
36 60
37 52
38 60
39 69
40 81
41 100
42 81
43 69
44 60
45 52
46 47
47 52
48 60
49 69
50 81
51 81
52 69
53 60
54 52
55 47
56 42
57 47
58 52
59 60
60 69
61 81
62 69
63 60
64 52
65 47
66 42
67 39
68 42
69 47
70 52
71 60
72 69
73 69
74 60
75 52
76 47
77 42
78 39
79 36
80 39
81 42
82 47
83 52
84 60
85 69
86 60
87 52
88 47
89 42
90 39
91 36
92 33
93 36
94 39
95 42
96 47
97 52
98 60
99 60
100 52
101 47
102 42
103 39
104 36
105 33
106 31
107 33
108 36
109 39
110 42
111 47
112 52
113 60
114 52
115 47
116 42
117 39
118 36
119 33
120 31
121 29
122 31
123 33
124 36
125 39
126 42
127 47
128 52
129 52
130 47
131 42
132 39
133 36
134 33
135 31
136 29
137 29
138 31
139 33
140 36
141 39
142 42
143 47
144 52
145 47
146 42
147 39
148 36
149 33
150 31
151 29
152 29
153 31
154 33
155 36
156 39
157 42
158 47
159 47
160 42
161 39
162 36
163 33
164 31
165 29
166 29
167 31
168 33
169 36
170 39
171 42
172 47
173 42
174 39
175 36
176 33
177 31
178 29
179 29
180 31
181 33
182 36
183 39
184 42
185 42
186 39
187 36
188 33
189 31
190 29
191 29
192 31
193 33
194 36
195 39
196 42
197 39
198 36
199 33
200 31
201 29
202 29
203 31
204 33
205 36
206 39
207 39
208 36
209 33
210 31
211 29
212 29
213 31
214 33
215 36
216 39
217 36
218 33
219 31
220 29
221 29
222 31
223 33
224 36
225 36
226 33
227 31
228 29
229 29
230 31
231 33
232 36
233 33
234 31
235 29
236 29
237 31
238 33
239 33
240 31
241 29
242 29
243 31
244 33
245 31
246 29
247 29
248 31
249 31
250 29
251 29
252 31
253 29
254 29
255 29
256 29
DEPOT_SECTION
1
-1
EOF
